results/filo/x-long/X-n157-k13.vrp_seed-3.vrp.sol
Route #1: 148 13 63 64 141 43 24 156 150 8 149 71
Route #2: 38 122 69 99 93 36 68 20 75 118 147 15
Route #3: 17 67 4 35 6 115 55 95 105 152 56 61
Route #4: 92 137 7 28 66 94 86 132 111 102 96 59
Route #5: 72 48 33 84 79 74 30 22 155 25 138 34
Route #6: 12 60 109 114 29 58 39 10 134 52 107 18
Route #7: 131 133 50 154 98 123 53 144 85 140 31 23
Route #8: 129 91 100 51 90 83 45 77 11 82 113 151
Route #9: 70 139 125 78 146 80 40 108 9 117 1 126
Route #10: 47 5 153 76 136 112 89 81 119 2 57 88
Route #11: 41 110 54 121 21 135 73 106 3 42 32 143
Route #12: 101 27 44 124 130 104 127 145 46 19 116 37
Route #13: 49 14 120 26 128 142 62 97 87 65 103 16
Cost 16876.000000